225

Ag	  0.0000	 -8.6670	  0.0000
Ag	  2.5020	 -7.2225	  0.0000
Ag	  5.0039	 -5.7780	  0.0000
Ag	  7.5059	 -4.3335	  0.0000
Ag	 -2.5020	 -7.2225	  0.0000
Ag	  0.0000	 -5.7780	  0.0000
Ag	  2.5020	 -4.3335	  0.0000
Ag	  5.0039	 -2.8890	  0.0000
Ag	  7.5059	 -1.4445	  0.0000
Ag	 -5.0039	 -5.7780	  0.0000
Ag	 -2.5020	 -4.3335	  0.0000
Ag	  0.0000	 -2.8890	  0.0000
Ag	  2.5020	 -1.4445	  0.0000
Ag	  5.0039	  0.0000	  0.0000
Ag	  7.5059	  1.4445	  0.0000
Ag	 -7.5059	 -4.3335	  0.0000
Ag	 -5.0039	 -2.8890	  0.0000
Ag	 -2.5020	 -1.4445	  0.0000
Ag	  0.0000	  0.0000	  0.0000
Ag	  2.5020	  1.4445	  0.0000
Ag	  5.0039	  2.8890	  0.0000
Ag	  7.5059	  4.3335	  0.0000
Ag	 -7.5059	 -1.4445	  0.0000
Ag	 -5.0039	  0.0000	  0.0000
Ag	 -2.5020	  1.4445	  0.0000
Ag	 -0.0000	  2.8890	  0.0000
Ag	  2.5020	  4.3335	  0.0000
Ag	  5.0039	  5.7780	  0.0000
Ag	 -7.5059	  1.4445	  0.0000
Ag	 -5.0039	  2.8890	  0.0000
Ag	 -2.5020	  4.3335	  0.0000
Ag	 -0.0000	  5.7780	  0.0000
Ag	  2.5020	  7.2225	  0.0000
Ag	 -7.5059	  4.3335	  0.0000
Ag	 -5.0039	  5.7780	  0.0000
Ag	 -2.5020	  7.2225	  0.0000
Ag	 -0.0000	  8.6670	  0.0000
 O	  1.6680	 -8.6670	 -2.6559
 O	  4.1700	 -7.2225	 -2.6559
 O	  6.6719	 -5.7780	 -2.6559
 O	 -0.8340	 -7.2225	 -2.6559
 O	  1.6680	 -5.7780	 -2.6559
 O	  4.1700	 -4.3335	 -2.6559
 O	  6.6719	 -2.8890	 -2.6559
 O	 -3.3359	 -5.7780	 -2.6559
 O	 -0.8340	 -4.3335	 -2.6559
 O	  1.6680	 -2.8890	 -2.6559
 O	  4.1700	 -1.4445	 -2.6559
 O	  6.6719	  0.0000	 -2.6559
 O	 -5.8379	 -4.3335	 -2.6559
 O	 -3.3359	 -2.8890	 -2.6559
 O	 -0.8340	 -1.4445	 -2.6559
 O	  1.6680	  0.0000	 -2.6559
 O	  4.1700	  1.4445	 -2.6559
 O	  6.6719	  2.8890	 -2.6559
 O	 -8.3398	 -2.8890	 -2.6559
 O	 -5.8379	 -1.4445	 -2.6559
 O	 -3.3359	  0.0000	 -2.6559
 O	 -0.8340	  1.4445	 -2.6559
 O	  1.6680	  2.8890	 -2.6559
 O	  4.1700	  4.3335	 -2.6559
 O	  6.6719	  5.7780	 -2.6559
 O	 -8.3398	  0.0000	 -2.6559
 O	 -5.8379	  1.4445	 -2.6559
 O	 -3.3359	  2.8890	 -2.6559
 O	 -0.8340	  4.3335	 -2.6559
 O	  1.6680	  5.7780	 -2.6559
 O	  4.1700	  7.2225	 -2.6559
 O	 -8.3398	  2.8890	 -2.6559
 O	 -5.8379	  4.3335	 -2.6559
 O	 -3.3359	  5.7780	 -2.6559
 O	 -0.8340	  7.2225	 -2.6559
 O	  1.6680	  8.6670	 -2.6559
Ag	  0.8340	 -7.2225	 -5.7204
Ag	  3.3359	 -5.7780	 -5.7204
Ag	  5.8379	 -4.3335	 -5.7204
Ag	 -4.1700	 -7.2225	 -5.7204
Ag	 -1.6680	 -5.7780	 -5.7204
Ag	  0.8340	 -4.3335	 -5.7204
Ag	  3.3359	 -2.8890	 -5.7204
Ag	  5.8379	 -1.4445	 -5.7204
Ag	  8.3398	 -0.0000	 -5.7204
Ag	 -4.1700	 -4.3335	 -5.7204
Ag	 -1.6680	 -2.8890	 -5.7204
Ag	  0.8340	 -1.4445	 -5.7204
Ag	  3.3359	 -0.0000	 -5.7204
Ag	  5.8379	  1.4445	 -5.7204
Ag	 -6.6719	 -2.8890	 -5.7204
Ag	 -4.1700	 -1.4445	 -5.7204
Ag	 -1.6680	 -0.0000	 -5.7204
Ag	  0.8340	  1.4445	 -5.7204
Ag	  3.3359	  2.8890	 -5.7204
Ag	  5.8379	  4.3335	 -5.7204
Ag	 -6.6719	 -0.0000	 -5.7204
Ag	 -4.1700	  1.4445	 -5.7204
Ag	 -1.6680	  2.8890	 -5.7204
Ag	  0.8340	  4.3335	 -5.7204
Ag	  3.3359	  5.7780	 -5.7204
Ag	 -6.6719	  2.8890	 -5.7204
Ag	 -4.1700	  4.3335	 -5.7204
Ag	 -1.6680	  5.7780	 -5.7204
Ag	  0.8340	  7.2225	 -5.7204
Ag	 -4.1700	  7.2225	 -5.7204
Ag	  2.5020	 -7.2225	 -7.8451
Ag	  5.0039	 -5.7780	 -7.8451
Ag	 -2.5020	 -7.2225	 -7.8451
Ag	  0.0000	 -5.7780	 -7.8451
Ag	  2.5020	 -4.3335	 -7.8451
Ag	  5.0039	 -2.8890	 -7.8451
Ag	  7.5059	 -1.4445	 -7.8451
Ag	 -5.0039	 -5.7780	 -7.8451
Ag	 -2.5020	 -4.3335	 -7.8451
Ag	  0.0000	 -2.8890	 -7.8451
Ag	  2.5020	 -1.4445	 -7.8451
Ag	  5.0039	  0.0000	 -7.8451
Ag	  7.5059	  1.4445	 -7.8451
Ag	 -5.0039	 -2.8890	 -7.8451
Ag	 -2.5020	 -1.4445	 -7.8451
Ag	  0.0000	  0.0000	 -7.8451
Ag	  2.5020	  1.4445	 -7.8451
Ag	  5.0039	  2.8890	 -7.8451
Ag	 -7.5059	 -1.4445	 -7.8451
Ag	 -5.0039	  0.0000	 -7.8451
Ag	 -2.5020	  1.4445	 -7.8451
Ag	 -0.0000	  2.8890	 -7.8451
Ag	  2.5020	  4.3335	 -7.8451
Ag	  5.0039	  5.7780	 -7.8451
Ag	 -7.5059	  1.4445	 -7.8451
Ag	 -5.0039	  2.8890	 -7.8451
Ag	 -2.5020	  4.3335	 -7.8451
Ag	 -0.0000	  5.7780	 -7.8451
Ag	  2.5020	  7.2225	 -7.8451
Ag	 -5.0039	  5.7780	 -7.8451
Ag	 -2.5020	  7.2225	 -7.8451
Ag	 -0.8340	 -7.2225	-10.7870
Ag	  1.6680	 -5.7780	-10.7870
Ag	  4.1700	 -4.3335	-10.7870
Ag	  6.6719	 -2.8890	-10.7870
Ag	 -3.3359	 -5.7780	-10.7870
Ag	 -0.8340	 -4.3335	-10.7870
Ag	  1.6680	 -2.8890	-10.7870
Ag	  4.1700	 -1.4445	-10.7870
Ag	  6.6719	  0.0000	-10.7870
Ag	 -5.8379	 -4.3335	-10.7870
Ag	 -3.3359	 -2.8890	-10.7870
Ag	 -0.8340	 -1.4445	-10.7870
Ag	  1.6680	  0.0000	-10.7870
Ag	  4.1700	  1.4445	-10.7870
Ag	  6.6719	  2.8890	-10.7870
Ag	 -5.8379	 -1.4445	-10.7870
Ag	 -3.3359	  0.0000	-10.7870
Ag	 -0.8340	  1.4445	-10.7870
Ag	  1.6680	  2.8890	-10.7870
Ag	  4.1700	  4.3335	-10.7870
Ag	 -5.8379	  1.4445	-10.7870
Ag	 -3.3359	  2.8890	-10.7870
Ag	 -0.8340	  4.3335	-10.7870
Ag	  1.6680	  5.7780	-10.7870
Ag	 -5.8379	  4.3335	-10.7870
Ag	 -3.3359	  5.7780	-10.7870
Ag	 -0.8340	  7.2225	-10.7870
Ag	  0.8340	 -7.2225	-13.1161
Ag	  3.3359	 -5.7780	-13.1161
Ag	  5.8379	 -4.3335	-13.1161
Ag	 -1.6680	 -5.7780	-13.1161
Ag	  0.8340	 -4.3335	-13.1161
Ag	  3.3359	 -2.8890	-13.1161
Ag	  5.8379	 -1.4445	-13.1161
Ag	 -4.1700	 -4.3335	-13.1161
Ag	 -1.6680	 -2.8890	-13.1161
Ag	  0.8340	 -1.4445	-13.1161
Ag	  3.3359	 -0.0000	-13.1161
Ag	  5.8379	  1.4445	-13.1161
Ag	 -6.6719	 -2.8890	-13.1161
Ag	 -4.1700	 -1.4445	-13.1161
Ag	 -1.6680	 -0.0000	-13.1161
Ag	  0.8340	  1.4445	-13.1161
Ag	  3.3359	  2.8890	-13.1161
Ag	  5.8379	  4.3335	-13.1161
Ag	 -6.6719	 -0.0000	-13.1161
Ag	 -4.1700	  1.4445	-13.1161
Ag	 -1.6680	  2.8890	-13.1161
Ag	  0.8340	  4.3335	-13.1161
Ag	  3.3359	  5.7780	-13.1161
Ag	 -6.6719	  2.8890	-13.1161
Ag	 -4.1700	  4.3335	-13.1161
Ag	 -1.6680	  5.7780	-13.1161
Ag	  0.8340	  7.2225	-13.1161
Ag	  0.0000	 -5.7780	-15.9354
Ag	  2.5020	 -4.3335	-15.9354
Ag	  5.0039	 -2.8890	-15.9354
Ag	 -2.5020	 -4.3335	-15.9354
Ag	  0.0000	 -2.8890	-15.9354
Ag	  2.5020	 -1.4445	-15.9354
Ag	  5.0039	  0.0000	-15.9354
Ag	 -5.0039	 -2.8890	-15.9354
Ag	 -2.5020	 -1.4445	-15.9354
Ag	  0.0000	  0.0000	-15.9354
Ag	  2.5020	  1.4445	-15.9354
Ag	  5.0039	  2.8890	-15.9354
Ag	 -5.0039	  0.0000	-15.9354
Ag	 -2.5020	  1.4445	-15.9354
Ag	 -0.0000	  2.8890	-15.9354
Ag	  2.5020	  4.3335	-15.9354
Ag	 -5.0039	  2.8890	-15.9354
Ag	 -2.5020	  4.3335	-15.9354
Ag	 -0.0000	  5.7780	-15.9354
Ag	  1.6680	 -5.7780	-18.2644
Ag	  4.1700	 -4.3335	-18.2644
Ag	 -0.8340	 -4.3335	-18.2644
Ag	  1.6680	 -2.8890	-18.2644
Ag	  4.1700	 -1.4445	-18.2644
Ag	 -3.3359	 -2.8890	-18.2644
Ag	 -0.8340	 -1.4445	-18.2644
Ag	  1.6680	  0.0000	-18.2644
Ag	  4.1700	  1.4445	-18.2644
Ag	 -5.8379	 -1.4445	-18.2644
Ag	 -3.3359	  0.0000	-18.2644
Ag	 -0.8340	  1.4445	-18.2644
Ag	  1.6680	  2.8890	-18.2644
Ag	  4.1700	  4.3335	-18.2644
Ag	 -5.8379	  1.4445	-18.2644
Ag	 -3.3359	  2.8890	-18.2644
Ag	 -0.8340	  4.3335	-18.2644
Ag	  1.6680	  5.7780	-18.2644
